c preprocessed version of kroA100.tsp, 95 vertices, 272 edges
p td 95 272
0 1
0 2
0 6
0 3
0 4
0 5
48 0
1 2
1 45
1 21
1 20
44 1
48 1
3 2
2 21
2 22
3 4
3 22
3 26
5 4
4 27
4 26
5 6
5 28
5 27
7 6
8 6
28 6
49 6
48 6
7 8
89 7
51 7
49 7
50 7
8 9
53 8
8 28
89 8
10 9
53 9
56 9
30 9
57 9
28 9
29 9
9 34
10 11
61 10
10 34
10 57
10 60
11 12
61 11
62 11
63 11
11 34
12 13
63 12
84 12
31 12
25 12
85 12
64 12
12 34
12 83
14 13
23 13
24 13
13 83
25 13
14 15
23 14
14 83
68 14
69 14
67 14
14 35
14 82
16 15
15 71
69 15
70 15
35 15
17 16
16 39
16 71
16 90
16 35
17 18
17 90
17 35
19 18
23 18
90 18
35 18
91 18
19 20
23 19
19 36
19 91
19 22
20 21
20 36
20 45
20 22
22 21
23 22
24 22
25 22
22 26
23 24
23 35
24 25
25 26
31 25
25 32
26 27
32 26
26 33
28 27
29 27
27 33
28 29
30 29
29 33
30 31
30 32
30 33
30 34
31 32
31 34
32 33
36 37
36 45
36 91
44 36
46 36
38 37
91 37
46 37
38 39
38 40
38 91
46 38
40 39
81 39
90 39
91 39
71 39
40 41
40 81
47 40
46 40
42 40
43 40
42 41
72 41
81 41
73 41
42 43
42 73
43 44
43 47
43 73
44 45
44 46
44 47
48 44
47 46
49 48
48 50
49 50
50 51
52 51
89 51
52 53
52 88
52 89
54 53
56 53
53 88
89 53
55 54
54 88
54 56
55 56
55 58
56 57
56 58
57 58
57 60
58 59
58 60
59 60
61 59
62 59
86 59
61 60
61 62
62 63
62 86
63 64
63 86
63 87
65 64
64 87
85 64
65 66
77 65
76 65
86 65
65 87
65 85
67 66
84 66
66 83
77 66
66 82
66 85
68 67
67 82
77 67
68 69
68 77
68 79
68 76
69 70
69 78
69 79
70 71
70 78
70 80
70 75
72 71
81 71
74 71
80 71
73 72
72 81
72 74
73 74
73 75
74 75
74 80
76 75
78 75
80 75
77 76
76 78
76 79
78 79
82 83
84 83
84 85
86 87
90 91
92 65
92 55
92 58
92 59
92 86
92 93
93 94
93 54
93 55
94 92
94 54
94 88
94 52
94 51
94 50
